#Generated by Multiwfn
&GLOBAL
  PROJECT MoS2
  PRINT_LEVEL LOW
  RUN_TYPE MD
&END GLOBAL

&FORCE_EVAL
  METHOD Quickstep
  &SUBSYS
    &CELL
      A  6.39818 0.0 0.0
      B  -3.19909 5.540988 0.0
      C   0.0 0.0 12.42199
      PERIODIC XYZ #Direction of applied PBC (geometry aspect)
    &END CELL
    &COORD
      Mo       0.03727880    1.87495995    3.16488004
      S        4.78121996    0.93875599    4.72656012
      S        4.80410004    0.94363999    1.61252999
      S        3.18727994    1.87123001   10.82040024
      Mo      -1.58220994    4.58725977    3.13082004
      Mo       0.02414160    3.71051002    9.27482033
      S       -1.57152998    4.62341022    7.68279982
      S       -0.00638657    3.67569995    4.72538996
      S        0.03355180    3.69713998    1.58913004
      S       -1.57793999    4.59057999   10.85060024
      Mo       1.61491001    4.62223005    3.17108989
      Mo       1.61889005    0.90012997    9.26778030
      Mo       3.19404006    3.69021010    9.24466991
      S        1.58129001    4.59691000    7.69778013
      S        3.19132996    3.71015000    4.71585989
      S        3.17431998    3.67098999    1.58585000
      S        1.63451004    4.60180998   10.83730030
      S        0.03182500    1.85631001    7.73586988
      S        1.60048997    0.90600401    4.71059990
      S        1.57815003    0.94436097    1.60668004
      S        0.00537643    1.84508002   10.81470013
      Mo       3.18975997    1.84396005    3.15509009
      Mo       4.78404999    0.93413901    9.26791954
      S        3.19778991    1.85748005    7.69649982
    &END COORD
#   &VELOCITY #You can set initial atomic velocities in this section
#   &END VELOCITY
    &KIND Mo   
      ELEMENT Mo
      BASIS_SET DZVP-MOLOPT-SR-GTH-q14
      POTENTIAL GTH-PBE
    &DFT_PLUS_U T
       L 2 #Quantum number of angular momentum the atomic orbitals to +U. 2=d, 3=f
       U_MINUS_J [eV] 3.5 #Effective on-site Coulomb interaction parameter U(eff) = U - J
       &END DFT_PLUS_U
    &END KIND
    &KIND S    
      ELEMENT S 
      BASIS_SET DZVP-MOLOPT-SR-GTH-q6
      POTENTIAL GTH-PBE
    &END KIND
  &END SUBSYS

  &DFT
    BASIS_SET_FILE_NAME  BASIS_MOLOPT
    POTENTIAL_FILE_NAME  POTENTIAL
#   WFN_RESTART_FILE_NAME MoS2-RESTART.wfn
    CHARGE    0 #Net charge
    MULTIPLICITY    1 #Spin multiplicity
    &QS
      EPS_DEFAULT 1.0E-10 #Set all EPS_xxx to values such that the energy will be correct up to this value
      EXTRAPOLATION ASPC #Extrapolation for wavefunction during e.g. MD. ASPC is default, PS also be used
      EXTRAPOLATION_ORDER 3 #Order for PS or ASPC extrapolation. 3 is default
    &END QS
    &POISSON
      PERIODIC XYZ #Direction(s) of PBC for calculating electrostatics
      PSOLVER PERIODIC #The way to solve Poisson equation
    &END POISSON
    &XC
      &XC_FUNCTIONAL PBE
      &END XC_FUNCTIONAL
      &VDW_POTENTIAL
        POTENTIAL_TYPE PAIR_POTENTIAL
        &PAIR_POTENTIAL
          PARAMETER_FILE_NAME dftd3.dat
          TYPE DFTD3(BJ)
          REFERENCE_FUNCTIONAL PBE
        &END PAIR_POTENTIAL
      &END VDW_POTENTIAL
    &END XC
    &MGRID
      CUTOFF 300
      REL_CUTOFF 40
    &END MGRID
    &SCF
      MAX_SCF 128
      EPS_SCF 1.0E-05 #Convergence threshold of density matrix of inner SCF
#     SCF_GUESS RESTART #Use wavefunction from WFN_RESTART_FILE_NAME file as initial guess
      &DIAGONALIZATION
        ALGORITHM STANDARD #Algorithm for diagonalization. DAVIDSON is faster for large systems
      &END DIAGONALIZATION
      &MIXING #How to mix old and new density matrices
        METHOD BROYDEN_MIXING #PULAY_MIXING is also a good alternative
        ALPHA 0.4 #Default. Mixing 40% of new density matrix with the old one
        NBROYDEN 8 #Default is 4. Number of previous steps stored for the actual mixing scheme
      &END MIXING
      &PRINT
        &RESTART OFF #Do not generate wfn file to suppress meaningless I/O cost
        &END RESTART
      &END PRINT
    &END SCF
  &END DFT
&END FORCE_EVAL

&MOTION
  &MD
    ENSEMBLE NVE
    STEPS 200 #Number of steps to run
    TIMESTEP 1.0 #Step size in fs. Decrease it properly for high temperature simulation
    TEMPERATURE 600 #Initial and maintained temperature (K)
#   COMVEL_TOL 0 #Uncomment this can remove translation motion of center-of-mass every step
#   ANGVEL_TOL 0 #Uncomment this can remove overall rotation every step
    ANGVEL_ZERO T #Eliminate overall rotation component from initial velocity
  &END MD
  &PRINT
    &TRAJECTORY
      &EACH
        MD   1 #Output frequency of coordinate
      &END EACH
      FORMAT xyz
    &END TRAJECTORY
    &VELOCITIES
      &EACH
        MD     1 #Output frequency of velocity
      &END EACH
    &END VELOCITIES
    &RESTART
      BACKUP_COPIES 0 #Maximum number of backing up restart file, 0 means never
      &EACH
        MD 1 #Frequency of updating last restart file
      &END EACH
    &END RESTART
    &RESTART_HISTORY OFF 
    &END RESTART_HISTORY
  &END PRINT
&END MOTION
